
Maximize
 obj: x17 + x18 + x19 + x20 + x21 + x22 + x23 + x24 + x25 + x26 + x27 + x28 + x29 + x30 + x31 + x32

Subject To
 c1:  x17 + x21 + x25 + x29 <= 1
 c2:  x18 + x22 + x26 + x30 <= 1
 c3:  x19 + x23 + x27 + x31 <= 1
 c4:  x20 + x24 + x28 + x32 <= 1
 
 c5:  x17 + x18 + x19 + x20 <= 1
 c6:  x21 + x22 + x23 + x24 <= 1
 c7:  x25 + x26 + x27 + x28 <= 1
 c8:  x29 + x30 + x31 + x32 <= 1
 
 c9:  x18 - x5 - x9 - x13 - x1 <= 0
 c10: x19 - x6 - x10 - x14 - x2 <= 0
 c11: x20 - x7 - x11 - x15 - x3 <= 0
 c12: x22 - x5 - x9 - x1 <= 0
 c13: x23 - x6 - x10 - x2 <= 0
 c14: x24 - x7 - x11 - x3 <= 0
 c15: x26 - x5 - x9 - x1 <= 0
 c16: x27 - x6 - x10 - x2 <= 0
 c17: x28 - x7 - x11 - x3 <= 0
 c18: x30 - x13 - x1 <= 0
 c19: x31 - x14 - x2 <= 0
 c20: x32 - x15 - x3 <= 0
 
 c21: x17 + x5 <= 1
 c22: x17 + x9 <= 1
 c23: x17 + x13 <= 1
 c24: x17 + x1 <= 1
 c25: x18 + x6 <= 1
 c26: x18 + x10 <= 1
 c27: x18 + x14 <= 1
 c28: x18 + x2 <= 1
 c29: x19 + x7 <= 1
 c30: x19 + x11 <= 1
 c31: x19 + x15 <= 1
 c32: x19 + x3 <= 1
 c33: x20 + x8 <= 1
 c34: x20 + x12 <= 1
 c35: x20 + x16 <= 1
 c36: x20 + x4 <= 1
 c37: x21 + x1 <= 1
 c38: x21 + x9 <= 1
 c39: x21 + x5 <= 1
 c40: x22 + x2 <= 1
 c41: x22 + x10 <= 1
 c42: x22 + x6 <= 1
 c43: x23 + x3 <= 1
 c44: x23 + x11 <= 1
 c45: x23 + x7 <= 1
 c46: x24 + x4 <= 1
 c47: x24 + x12 <= 1
 c48: x24 + x8 <= 1
 c49: x25 + x1 <= 1
 c50: x25 + x5 <= 1
 c51: x25 + x9 <= 1
 c52: x26 + x2 <= 1
 c53: x26 + x6 <= 1
 c54: x26 + x10 <= 1
 c55: x27 + x3 <= 1
 c56: x27 + x7 <= 1
 c57: x27 + x11 <= 1
 c58: x28 + x4 <= 1
 c59: x28 + x8 <= 1
 c60: x28 + x12 <= 1
 c61: x29 + x1 <= 1
 c62: x29 + x13 <= 1
 c63: x30 + x2 <= 1
 c64: x30 + x14 <= 1
 c65: x31 + x3 <= 1
 c66: x31 + x15 <= 1
 c67: x32 + x4 <= 1
 c68: x32 + x16 <= 1
 
 c69: - x1 + x2 <= 0
 c70: - x2 + x3 <= 0
 c71: - x3 + x4 <= 0
 c72: - x5 + x6 <= 0
 c73: - x6 + x7 <= 0
 c74: - x7 + x8 <= 0
 c75: - x9 + x10 <= 0
 c76: - x10 + x11 <= 0
 c77: - x11 + x12 <= 0
 c78: - x13 + x14 <= 0
 c79: - x14 + x15 <= 0
 c80: - x15 + x16 <= 0

Bounds
 0 <= x17 <= 1
 0 <= x18 <= 1
 0 <= x19 <= 1
 0 <= x20 <= 1
 0 <= x21 <= 1
 0 <= x22 <= 1
 0 <= x23 <= 1
 0 <= x24 <= 1
 0 <= x25 <= 1
 0 <= x26 <= 1
 0 <= x27 <= 1
 0 <= x28 <= 1
 0 <= x29 <= 1
 0 <= x30 <= 1
 0 <= x31 <= 1
 0 <= x32 <= 1
 0 <= x5 <= 1
 0 <= x9 <= 1
 0 <= x13 <= 1
 0 <= x1 <= 1
 0 <= x6 <= 1
 0 <= x10 <= 1
 0 <= x14 <= 1
 0 <= x2 <= 1
 0 <= x7 <= 1
 0 <= x11 <= 1
 0 <= x15 <= 1
 0 <= x3 <= 1
 0 <= x8 <= 1
 0 <= x12 <= 1
 0 <= x16 <= 1
 0 <= x4 <= 1

Binaries
 x17  x18  x19  x20  x21  x22  x23  x24  x25  x26  x27  x28  x29  x30  x31
 x32  x5  x9  x13  x1  x6  x10  x14  x2  x7  x11  x15  x3  x8  x12  x16  x4
 
End
